NAME : gr96.tsp
COMMENT : Optimal tour for gr96.tsp
TYPE : TOUR
DIMENSION : 96
Total Length: 543.5844248437738
TOUR_SECTION
1
30
31
32
36
37
38
35
34
33
11
44
45
46
47
48
53
55
51
52
50
49
43
42
41
40
39
79
80
83
91
90
89
87
84
85
86
88
78
92
93
95
96
94
76
77
75
72
71
73
74
82
81
70
69
57
56
58
54
25
23
24
60
59
61
62
63
64
68
67
66
65
27
28
26
22
21
19
18
20
17
16
15
14
13
12
10
9
7
8
6
5
4
3
2
29
-1
EOF
